(set-info :Origin "This instance was generated by: BanditFuzz-- an RL fuzzer for SMT solvers" )
(set-info :Author "Joe Scott, Fed Mora, Vijay Ganesh" )
(set-info :Contact "Joe Scott, joseph.scott@uwaterloo.ca")
(set-logic QF_BV)
(declare-const bool_0 Bool)
(declare-const bool_1 Bool)
(declare-const bool_2 Bool)
(declare-const bool_3 Bool)
(declare-const bool_4 Bool)
(declare-const bv_0 (_ BitVec 32))
(declare-const bv_1 (_ BitVec 32))
(declare-const bv_2 (_ BitVec 32))
(declare-const bv_3 (_ BitVec 32))
(declare-const bv_4 (_ BitVec 32))
(assert (bvult (bvsdiv (bvsmod bv_3 #xa3d16d36 ) (bvxnor #x0281dc37  #xd3c579da )) (bvxnor (bvsmod bv_1 bv_1) (bvsdiv #x67d65842  bv_2))))
(assert (bvule (bvsmod (bvor bv_3 #x5fb3ca01 ) (bvadd #x4e7bc21b  bv_4)) (bvmul (bvxor #x7034cdb1  bv_4) (bvand bv_3 #x3901c61c ))))
(assert (not (and (bvugt #xc1a6d3f8  #x13dc6289 ) (=> bool_4 bool_4))))
(assert (=> (bvsge (bvshl bv_0 bv_0) (bvsub #xb3ef0b7b  #x87eca9f8 )) (xor (bvslt bv_3 #xb32daa6a ) (bvsle bv_4 #x2adc62d5 ))))
(assert (and (bvult (bvsub #xb508b06c  bv_1) (bvor bv_0 #x5391cf1e )) (xor (and false bool_4) (not true))))
(check-sat)
(exit)
